NAME : pr2392
TYPE : OP
DIMENSION : 2392
COST_LIMIT : 189016
ROUTE_NODES : 1292
ROUTE_SCORE : 1292
ROUTE_COST : 189016
NODE_SEQUENCE_SECTION
1
2392
2391
2387
2380
2379
2378
2376
2375
2372
2373
2339
2340
2341
2338
2337
2336
2335
2334
2333
2332
2325
2324
2323
2322
2321
2318
2319
2320
1310
1309
1308
1307
1306
1303
1304
1305
1311
1312
1314
1313
2311
2310
2309
2308
2307
1324
1322
1321
1320
1319
1318
1317
1315
1316
1351
1352
1353
1350
1349
1348
1347
1346
1340
1341
1339
1338
1337
1336
1409
1410
1408
1405
1406
1401
1407
1414
1415
1416
1417
1398
1397
1396
1395
1394
1393
1392
1391
1390
1389
1388
1387
1386
1385
1384
1383
1382
1381
1369
1368
1370
1371
1364
1363
1362
1373
1376
1375
1278
1277
1276
1275
1274
1263
1262
1261
1260
1258
1257
1256
1218
1219
1220
1223
1222
1221
1255
1254
1253
1252
1251
1250
1248
1249
1228
1227
1229
1230
1234
1233
1231
1232
1164
1163
1165
1166
1171
1170
1172
1159
1158
1157
1156
1175
1176
1177
1178
1179
1180
1181
1182
1183
1184
1185
1186
1187
1188
1189
1190
1191
1192
1194
1195
1196
1197
1199
1200
1201
1202
1203
1204
156
157
154
153
151
150
149
148
147
138
137
136
135
134
132
133
198
199
200
201
202
203
204
205
206
207
208
209
210
217
226
227
228
229
230
231
232
233
234
235
236
237
238
242
241
250
249
248
253
254
256
255
182
183
184
185
187
188
190
191
194
195
196
162
161
163
164
165
166
167
168
170
171
172
179
178
177
176
353
352
351
350
349
347
345
343
342
341
340
331
330
329
328
315
313
317
316
318
319
320
321
322
323
324
327
326
325
386
387
388
389
390
391
392
394
395
304
303
298
299
300
301
398
399
400
401
402
403
404
405
406
408
409
410
411
412
413
414
415
416
417
418
440
441
442
443
444
445
446
447
448
449
450
451
452
453
454
455
456
457
461
462
464
460
459
433
435
436
429
428
437
438
427
426
425
424
423
422
960
959
958
957
921
955
956
953
954
948
949
947
946
945
944
474
475
473
470
471
466
465
480
481
482
483
484
485
493
494
495
497
501
528
529
527
530
531
526
525
532
533
534
535
536
537
545
544
543
550
549
551
553
554
555
556
557
564
565
566
567
568
515
514
516
517
518
519
520
521
522
511
513
569
570
571
572
573
579
580
582
583
584
586
589
590
598
599
600
601
602
603
604
605
607
606
608
609
610
611
612
613
614
615
616
617
621
623
624
625
626
627
628
630
631
632
633
634
638
639
640
637
635
636
697
696
695
693
692
691
690
689
688
687
686
684
683
681
708
709
705
706
707
699
698
700
701
702
718
719
720
721
724
725
726
727
728
729
730
731
732
733
734
735
736
740
744
746
747
748
756
757
758
763
764
765
766
768
769
774
773
776
761
760
759
778
779
780
784
783
782
808
806
807
794
795
796
797
798
929
928
927
926
925
924
923
922
919
918
917
916
915
914
913
912
911
910
909
908
904
903
902
901
900
899
898
801
802
803
804
805
812
813
814
815
816
817
818
819
820
821
822
827
828
829
826
825
824
889
888
887
886
885
884
883
882
881
1011
1012
1013
1014
1015
1016
1017
1019
1018
1077
1076
1079
1080
1081
1082
1083
1084
1085
1087
1089
1088
1095
1094
1098
1097
376
375
374
373
372
371
370
369
334
333
336
335
363
364
365
366
367
368
1107
1112
1113
1114
1119
1118
1117
1116
1127
1125
1069
1068
1067
1066
1065
1064
1061
1063
1062
1031
1032
1030
1029
1028
1027
1026
1025
1024
1450
1449
1448
1451
1452
1455
1456
1457
1458
1549
1548
1546
1545
1544
1543
1571
1572
1573
1574
1575
1565
1564
1681
1682
1683
869
871
868
867
866
865
864
862
863
1698
1699
1700
1697
1696
1695
1694
1692
1691
1690
1689
1688
1687
1686
1685
1684
1677
1676
1675
1674
1673
1672
1671
1668
1670
1669
1663
1664
1662
1661
1657
1658
1660
1659
1727
1728
1729
1730
1731
1732
1733
1734
1735
1716
1715
1714
1710
1709
1708
1707
1706
1705
1704
1703
1702
854
855
856
859
858
857
853
837
835
838
839
840
841
843
844
845
846
669
670
671
668
667
664
663
662
661
660
659
658
656
657
655
654
653
652
651
650
649
648
647
646
1794
1793
1797
1798
1790
1789
1788
1787
1786
1785
1778
1779
1784
1783
1780
1782
1781
1757
1756
1760
1761
1762
1763
1764
1766
1774
1773
1772
1771
1770
1769
1768
1767
1822
1821
1820
1819
1818
1817
1810
1811
1812
1815
1814
1871
1872
1869
1868
1867
1866
1865
1864
1980
1979
1978
1977
1973
1974
1877
1878
1879
1880
1881
1883
1884
1885
1886
1887
1891
1892
1893
1895
1899
1900
1901
1902
1903
1904
1905
1906
1907
1908
1909
1910
1911
1912
1913
1914
1915
1916
1917
1920
1919
1918
1926
1928
1930
1932
1933
1934
1936
1937
1943
1944
1945
1946
1947
1952
1951
1953
1954
1955
1956
1970
1983
1984
1982
1985
1986
1987
1988
1989
1990
1968
1967
1965
1966
1991
1992
1993
1997
1999
2002
2003
1849
1850
1851
1852
1853
1854
1855
1856
1857
1858
1860
1859
1861
1862
1863
1828
1827
1830
1832
1833
1835
1836
1837
1839
1842
1843
1844
1845
1846
1847
1653
1654
1655
1650
1649
1648
1647
1646
1642
1643
1641
1640
1639
1638
1637
1634
1633
1631
1630
1629
1628
1627
1626
1625
1624
1623
1621
1620
1619
1618
1617
1616
1615
1614
1613
2054
2053
2056
2067
2066
2057
2058
2065
2064
2062
2061
2059
2060
2048
2047
2046
2045
2044
2043
2042
2041
2040
2039
2038
2037
2036
2035
2034
2033
2032
2031
2012
2013
2014
2029
2026
2027
2022
2021
2019
2018
2096
2095
2100
2101
2102
2103
2104
2108
2107
2109
2110
2111
2112
2113
2114
2080
2081
2082
2079
2078
2077
2115
2116
2117
2119
2120
2121
2122
2123
2124
2125
2126
2127
2128
2130
2131
2132
2133
2134
2135
2138
2139
2140
2141
2142
2143
2144
2145
2146
2147
2148
2150
2149
2151
2152
2154
2153
2180
2181
2179
2182
2183
2184
2185
2186
2187
2243
2245
2234
2235
2236
2237
2238
2239
2240
2242
2241
2188
2189
2190
2191
2192
2199
2200
2201
2202
2203
2205
2207
2206
2213
2212
2217
2218
2221
2220
2219
2211
2210
2209
2208
2232
2231
2230
2229
2226
2225
2224
2223
2222
1524
1525
1526
1527
1528
1529
1530
1531
1532
1533
1534
1536
1539
1541
1540
1479
1480
1481
1478
1477
1476
1471
1472
1473
1460
1462
1461
1445
1446
1447
1444
1443
1442
1441
1440
1439
1438
1463
1464
1465
1466
1467
1469
1482
1483
1484
1485
1486
1487
1490
1489
1488
1523
1522
1521
1520
1519
1518
1517
1516
1515
1514
1513
1512
1511
1510
1505
1506
1507
1330
1331
1332
1333
1327
1326
2306
2305
2304
2302
2303
2300
2299
2298
2297
2296
2295
2294
2293
2274
2275
2276
2277
2290
2288
2289
2284
2283
2281
2282
2350
2349
2351
2352
2348
2345
2346
2347
2363
2364
2365
2366
2367
2368
2369
2371
2370
2381
2382
2383
2384
2385
2386
2388
2389
2390
-1
DEPOT_SECTION
1
-1
EOF
